g3 0 1 0	# problem fletchcr
 100 0 1 0 0	# vars, constraints, objectives, ranges, eqns
 0 1	# nonlinear constraints, objectives
 0 0	# network constraints: nonlinear, linear
 0 100 0	# nonlinear vars in constraints, objectives, both
 0 0 0 1	# linear network variables; functions; arith, flags
 0 0 0 0 0	# discrete variables: binary, integer, nonlinear (b,c,o)
 0 100	# nonzeros in Jacobian, gradients
 1 6	# max name lengths: constraints, variables
 0 0 0 0 0	# common exprs: b,c,o,c1,o1
O0 0
o54
99
o2
n100
o5
o1
o0
o1
v1
v0
n1
o5
v0
n2
n2
o2
n100
o5
o1
o0
o1
v2
v1
n1
o5
v1
n2
n2
o2
n100
o5
o1
o0
o1
v3
v2
n1
o5
v2
n2
n2
o2
n100
o5
o1
o0
o1
v4
v3
n1
o5
v3
n2
n2
o2
n100
o5
o1
o0
o1
v5
v4
n1
o5
v4
n2
n2
o2
n100
o5
o1
o0
o1
v6
v5
n1
o5
v5
n2
n2
o2
n100
o5
o1
o0
o1
v7
v6
n1
o5
v6
n2
n2
o2
n100
o5
o1
o0
o1
v8
v7
n1
o5
v7
n2
n2
o2
n100
o5
o1
o0
o1
v9
v8
n1
o5
v8
n2
n2
o2
n100
o5
o1
o0
o1
v10
v9
n1
o5
v9
n2
n2
o2
n100
o5
o1
o0
o1
v11
v10
n1
o5
v10
n2
n2
o2
n100
o5
o1
o0
o1
v12
v11
n1
o5
v11
n2
n2
o2
n100
o5
o1
o0
o1
v13
v12
n1
o5
v12
n2
n2
o2
n100
o5
o1
o0
o1
v14
v13
n1
o5
v13
n2
n2
o2
n100
o5
o1
o0
o1
v15
v14
n1
o5
v14
n2
n2
o2
n100
o5
o1
o0
o1
v16
v15
n1
o5
v15
n2
n2
o2
n100
o5
o1
o0
o1
v17
v16
n1
o5
v16
n2
n2
o2
n100
o5
o1
o0
o1
v18
v17
n1
o5
v17
n2
n2
o2
n100
o5
o1
o0
o1
v19
v18
n1
o5
v18
n2
n2
o2
n100
o5
o1
o0
o1
v20
v19
n1
o5
v19
n2
n2
o2
n100
o5
o1
o0
o1
v21
v20
n1
o5
v20
n2
n2
o2
n100
o5
o1
o0
o1
v22
v21
n1
o5
v21
n2
n2
o2
n100
o5
o1
o0
o1
v23
v22
n1
o5
v22
n2
n2
o2
n100
o5
o1
o0
o1
v24
v23
n1
o5
v23
n2
n2
o2
n100
o5
o1
o0
o1
v25
v24
n1
o5
v24
n2
n2
o2
n100
o5
o1
o0
o1
v26
v25
n1
o5
v25
n2
n2
o2
n100
o5
o1
o0
o1
v27
v26
n1
o5
v26
n2
n2
o2
n100
o5
o1
o0
o1
v28
v27
n1
o5
v27
n2
n2
o2
n100
o5
o1
o0
o1
v29
v28
n1
o5
v28
n2
n2
o2
n100
o5
o1
o0
o1
v30
v29
n1
o5
v29
n2
n2
o2
n100
o5
o1
o0
o1
v31
v30
n1
o5
v30
n2
n2
o2
n100
o5
o1
o0
o1
v32
v31
n1
o5
v31
n2
n2
o2
n100
o5
o1
o0
o1
v33
v32
n1
o5
v32
n2
n2
o2
n100
o5
o1
o0
o1
v34
v33
n1
o5
v33
n2
n2
o2
n100
o5
o1
o0
o1
v35
v34
n1
o5
v34
n2
n2
o2
n100
o5
o1
o0
o1
v36
v35
n1
o5
v35
n2
n2
o2
n100
o5
o1
o0
o1
v37
v36
n1
o5
v36
n2
n2
o2
n100
o5
o1
o0
o1
v38
v37
n1
o5
v37
n2
n2
o2
n100
o5
o1
o0
o1
v39
v38
n1
o5
v38
n2
n2
o2
n100
o5
o1
o0
o1
v40
v39
n1
o5
v39
n2
n2
o2
n100
o5
o1
o0
o1
v41
v40
n1
o5
v40
n2
n2
o2
n100
o5
o1
o0
o1
v42
v41
n1
o5
v41
n2
n2
o2
n100
o5
o1
o0
o1
v43
v42
n1
o5
v42
n2
n2
o2
n100
o5
o1
o0
o1
v44
v43
n1
o5
v43
n2
n2
o2
n100
o5
o1
o0
o1
v45
v44
n1
o5
v44
n2
n2
o2
n100
o5
o1
o0
o1
v46
v45
n1
o5
v45
n2
n2
o2
n100
o5
o1
o0
o1
v47
v46
n1
o5
v46
n2
n2
o2
n100
o5
o1
o0
o1
v48
v47
n1
o5
v47
n2
n2
o2
n100
o5
o1
o0
o1
v49
v48
n1
o5
v48
n2
n2
o2
n100
o5
o1
o0
o1
v50
v49
n1
o5
v49
n2
n2
o2
n100
o5
o1
o0
o1
v51
v50
n1
o5
v50
n2
n2
o2
n100
o5
o1
o0
o1
v52
v51
n1
o5
v51
n2
n2
o2
n100
o5
o1
o0
o1
v53
v52
n1
o5
v52
n2
n2
o2
n100
o5
o1
o0
o1
v54
v53
n1
o5
v53
n2
n2
o2
n100
o5
o1
o0
o1
v55
v54
n1
o5
v54
n2
n2
o2
n100
o5
o1
o0
o1
v56
v55
n1
o5
v55
n2
n2
o2
n100
o5
o1
o0
o1
v57
v56
n1
o5
v56
n2
n2
o2
n100
o5
o1
o0
o1
v58
v57
n1
o5
v57
n2
n2
o2
n100
o5
o1
o0
o1
v59
v58
n1
o5
v58
n2
n2
o2
n100
o5
o1
o0
o1
v60
v59
n1
o5
v59
n2
n2
o2
n100
o5
o1
o0
o1
v61
v60
n1
o5
v60
n2
n2
o2
n100
o5
o1
o0
o1
v62
v61
n1
o5
v61
n2
n2
o2
n100
o5
o1
o0
o1
v63
v62
n1
o5
v62
n2
n2
o2
n100
o5
o1
o0
o1
v64
v63
n1
o5
v63
n2
n2
o2
n100
o5
o1
o0
o1
v65
v64
n1
o5
v64
n2
n2
o2
n100
o5
o1
o0
o1
v66
v65
n1
o5
v65
n2
n2
o2
n100
o5
o1
o0
o1
v67
v66
n1
o5
v66
n2
n2
o2
n100
o5
o1
o0
o1
v68
v67
n1
o5
v67
n2
n2
o2
n100
o5
o1
o0
o1
v69
v68
n1
o5
v68
n2
n2
o2
n100
o5
o1
o0
o1
v70
v69
n1
o5
v69
n2
n2
o2
n100
o5
o1
o0
o1
v71
v70
n1
o5
v70
n2
n2
o2
n100
o5
o1
o0
o1
v72
v71
n1
o5
v71
n2
n2
o2
n100
o5
o1
o0
o1
v73
v72
n1
o5
v72
n2
n2
o2
n100
o5
o1
o0
o1
v74
v73
n1
o5
v73
n2
n2
o2
n100
o5
o1
o0
o1
v75
v74
n1
o5
v74
n2
n2
o2
n100
o5
o1
o0
o1
v76
v75
n1
o5
v75
n2
n2
o2
n100
o5
o1
o0
o1
v77
v76
n1
o5
v76
n2
n2
o2
n100
o5
o1
o0
o1
v78
v77
n1
o5
v77
n2
n2
o2
n100
o5
o1
o0
o1
v79
v78
n1
o5
v78
n2
n2
o2
n100
o5
o1
o0
o1
v80
v79
n1
o5
v79
n2
n2
o2
n100
o5
o1
o0
o1
v81
v80
n1
o5
v80
n2
n2
o2
n100
o5
o1
o0
o1
v82
v81
n1
o5
v81
n2
n2
o2
n100
o5
o1
o0
o1
v83
v82
n1
o5
v82
n2
n2
o2
n100
o5
o1
o0
o1
v84
v83
n1
o5
v83
n2
n2
o2
n100
o5
o1
o0
o1
v85
v84
n1
o5
v84
n2
n2
o2
n100
o5
o1
o0
o1
v86
v85
n1
o5
v85
n2
n2
o2
n100
o5
o1
o0
o1
v87
v86
n1
o5
v86
n2
n2
o2
n100
o5
o1
o0
o1
v88
v87
n1
o5
v87
n2
n2
o2
n100
o5
o1
o0
o1
v89
v88
n1
o5
v88
n2
n2
o2
n100
o5
o1
o0
o1
v90
v89
n1
o5
v89
n2
n2
o2
n100
o5
o1
o0
o1
v91
v90
n1
o5
v90
n2
n2
o2
n100
o5
o1
o0
o1
v92
v91
n1
o5
v91
n2
n2
o2
n100
o5
o1
o0
o1
v93
v92
n1
o5
v92
n2
n2
o2
n100
o5
o1
o0
o1
v94
v93
n1
o5
v93
n2
n2
o2
n100
o5
o1
o0
o1
v95
v94
n1
o5
v94
n2
n2
o2
n100
o5
o1
o0
o1
v96
v95
n1
o5
v95
n2
n2
o2
n100
o5
o1
o0
o1
v97
v96
n1
o5
v96
n2
n2
o2
n100
o5
o1
o0
o1
v98
v97
n1
o5
v97
n2
n2
o2
n100
o5
o1
o0
o1
v99
v98
n1
o5
v98
n2
n2
x100
0 0
1 0
2 0
3 0
4 0
5 0
6 0
7 0
8 0
9 0
10 0
11 0
12 0
13 0
14 0
15 0
16 0
17 0
18 0
19 0
20 0
21 0
22 0
23 0
24 0
25 0
26 0
27 0
28 0
29 0
30 0
31 0
32 0
33 0
34 0
35 0
36 0
37 0
38 0
39 0
40 0
41 0
42 0
43 0
44 0
45 0
46 0
47 0
48 0
49 0
50 0
51 0
52 0
53 0
54 0
55 0
56 0
57 0
58 0
59 0
60 0
61 0
62 0
63 0
64 0
65 0
66 0
67 0
68 0
69 0
70 0
71 0
72 0
73 0
74 0
75 0
76 0
77 0
78 0
79 0
80 0
81 0
82 0
83 0
84 0
85 0
86 0
87 0
88 0
89 0
90 0
91 0
92 0
93 0
94 0
95 0
96 0
97 0
98 0
99 0
b
3
3
3
3
3
3
3
3
3
3
3
3
3
3
3
3
3
3
3
3
3
3
3
3
3
3
3
3
3
3
3
3
3
3
3
3
3
3
3
3
3
3
3
3
3
3
3
3
3
3
3
3
3
3
3
3
3
3
3
3
3
3
3
3
3
3
3
3
3
3
3
3
3
3
3
3
3
3
3
3
3
3
3
3
3
3
3
3
3
3
3
3
3
3
3
3
3
3
3
3
k99
0
0
0
0
0
0
0
0
0
0
0
0
0
0
0
0
0
0
0
0
0
0
0
0
0
0
0
0
0
0
0
0
0
0
0
0
0
0
0
0
0
0
0
0
0
0
0
0
0
0
0
0
0
0
0
0
0
0
0
0
0
0
0
0
0
0
0
0
0
0
0
0
0
0
0
0
0
0
0
0
0
0
0
0
0
0
0
0
0
0
0
0
0
0
0
0
0
0
0
G0 100
0 0
1 0
2 0
3 0
4 0
5 0
6 0
7 0
8 0
9 0
10 0
11 0
12 0
13 0
14 0
15 0
16 0
17 0
18 0
19 0
20 0
21 0
22 0
23 0
24 0
25 0
26 0
27 0
28 0
29 0
30 0
31 0
32 0
33 0
34 0
35 0
36 0
37 0
38 0
39 0
40 0
41 0
42 0
43 0
44 0
45 0
46 0
47 0
48 0
49 0
50 0
51 0
52 0
53 0
54 0
55 0
56 0
57 0
58 0
59 0
60 0
61 0
62 0
63 0
64 0
65 0
66 0
67 0
68 0
69 0
70 0
71 0
72 0
73 0
74 0
75 0
76 0
77 0
78 0
79 0
80 0
81 0
82 0
83 0
84 0
85 0
86 0
87 0
88 0
89 0
90 0
91 0
92 0
93 0
94 0
95 0
96 0
97 0
98 0
99 0
